letting n =  10
letting blocks =  [[1, 3], [1, 6], [2, 1], [2, 3], [2, 5], [3, 8], [3, 10], [4, 5], [4, 7], [5, 1], [5, 2], [5, 5], [6, 5], [6, 6], [6, 7], [6, 10], [7, 3], [7, 7], [7, 9], [8, 6], [9, 6], [9, 9], [10, 1], [10, 9]]
